c input_v4/sequential/cnf_noALO_v4/10x10_120.cnf
c p 1720
c cnf 7632
s SATISFIABLE
c process-time: 0.01 seconds
-----
c input_v4/sequential/cnf_noALO_v4/10x10_121.cnf
c p 1720
c cnf 7448
s SATISFIABLE
c process-time: 0.00 seconds
-----
c input_v4/sequential/cnf_noALO_v4/10x10_122.cnf
c p 1720
c cnf 7503
s SATISFIABLE
c process-time: 0.00 seconds
-----
c input_v4/sequential/cnf_noALO_v4/10x10_123.cnf
c p 1880
c cnf 8218
s SATISFIABLE
c process-time: 0.00 seconds
-----
c input_v4/sequential/cnf_noALO_v4/10x10_124.cnf
c p 1720
c cnf 7466
s SATISFIABLE
c process-time: 0.00 seconds
-----
c input_v4/sequential/cnf_noALO_v4/10x10_130.cnf
c p 1720
c cnf 7337
s SATISFIABLE
c process-time: 0.00 seconds
-----
c input_v4/sequential/cnf_noALO_v4/10x10_131.cnf
c p 1388
c cnf 6239
s SATISFIABLE
c process-time: 0.00 seconds
-----
c input_v4/sequential/cnf_noALO_v4/10x10_132.cnf
c p 1556
c cnf 6957
s SATISFIABLE
c process-time: 0.00 seconds
-----
c input_v4/sequential/cnf_noALO_v4/10x10_133.cnf
c p 1880
c cnf 8341
s SATISFIABLE
c process-time: 0.00 seconds
-----
c input_v4/sequential/cnf_noALO_v4/10x10_134.cnf
c p 1388
c cnf 6268
s SATISFIABLE
c process-time: 0.00 seconds
-----
c input_v4/sequential/cnf_noALO_v4/10x10_135.cnf
c p 1556
c cnf 6924
s SATISFIABLE
c process-time: 0.01 seconds
-----
c input_v4/sequential/cnf_noALO_v4/10x10_136.cnf
c p 1720
c cnf 7540
s SATISFIABLE
c process-time: 0.00 seconds
-----
c input_v4/sequential/cnf_noALO_v4/10x10_137.cnf
c p 1720
c cnf 7540
s SATISFIABLE
c process-time: 0.00 seconds
-----
c input_v4/sequential/cnf_noALO_v4/10x10_138.cnf
c p 1880
c cnf 8259
s SATISFIABLE
c process-time: 0.00 seconds
-----
c input_v4/sequential/cnf_noALO_v4/10x10_139.cnf
c p 1556
c cnf 6842
s SATISFIABLE
c process-time: 0.01 seconds
-----
c input_v4/sequential/cnf_noALO_v4/10x10_140.cnf
c p 1880
c cnf 8136
s SATISFIABLE
c process-time: 0.00 seconds
-----
c input_v4/sequential/cnf_noALO_v4/10x10_141.cnf
c p 1720
c cnf 7613
s SATISFIABLE
c process-time: 0.00 seconds
-----
c input_v4/sequential/cnf_noALO_v4/10x10_142.cnf
c p 1720
c cnf 7558
s SATISFIABLE
c process-time: 0.00 seconds
-----
c input_v4/sequential/cnf_noALO_v4/10x10_143.cnf
c p 1556
c cnf 6825
s SATISFIABLE
c process-time: 0.00 seconds
-----
c input_v4/sequential/cnf_noALO_v4/10x10_144.cnf
c p 1880
c cnf 7973
s SATISFIABLE
c process-time: 0.00 seconds
-----
c input_v4/sequential/cnf_noALO_v4/10x10_145.cnf
c p 1880
c cnf 8095
s SATISFIABLE
c process-time: 0.00 seconds
-----
c input_v4/sequential/cnf_noALO_v4/10x15_387.cnf
c p 2670
c cnf 12237
s SATISFIABLE
c process-time: 0.02 seconds
-----
c input_v4/sequential/cnf_noALO_v4/10x15_388.cnf
c p 2406
c cnf 11397
s SATISFIABLE
c process-time: 0.08 seconds
-----
c input_v4/sequential/cnf_noALO_v4/10x15_389.cnf
c p 2138
c cnf 10061
s SATISFIABLE
c process-time: 0.10 seconds
-----
c input_v4/sequential/cnf_noALO_v4/10x15_390.cnf
c p 2670
c cnf 12422
s SATISFIABLE
c process-time: 0.17 seconds
-----
c input_v4/sequential/cnf_noALO_v4/10x15_396.cnf
c p 2138
c cnf 10076
s SATISFIABLE
c process-time: 0.39 seconds
-----
c input_v4/sequential/cnf_noALO_v4/10x15_397.cnf
c p 2406
c cnf 11215
s SATISFIABLE
c process-time: 0.04 seconds
-----
c input_v4/sequential/cnf_noALO_v4/10x15_398.cnf
c p 2138
c cnf 10047
s SATISFIABLE
c process-time: 1s 0.82 seconds
-----
c input_v4/sequential/cnf_noALO_v4/10x15_399.cnf
c p 2406
c cnf 11231
s SATISFIABLE
c process-time: 0.02 seconds
-----
c input_v4/sequential/cnf_noALO_v4/10x15_400.cnf
c p 2138
c cnf 10076
s SATISFIABLE
c process-time: 0.29 seconds
-----
c input_v4/sequential/cnf_noALO_v4/10x18_186.cnf
c p 4188
c cnf 19216
s SATISFIABLE
c process-time: 0.13 seconds
-----
c input_v4/sequential/cnf_noALO_v4/10x18_187.cnf
c p 3240
c cnf 15380
s SATISFIABLE
c process-time: 0.28 seconds
-----
c input_v4/sequential/cnf_noALO_v4/10x18_198.cnf
c p 5100
c cnf 23101
s SATISFIABLE
c process-time: 0.06 seconds
-----
c input_v4/sequential/cnf_noALO_v4/10x18_199.cnf
c p 4188
c cnf 19362
s SATISFIABLE
c process-time: 0.02 seconds
-----
c input_v4/sequential/cnf_noALO_v4/10x18_200.cnf
c p 3876
c cnf 17966
s SATISFIABLE
c process-time: 1s 0.57 seconds
-----
c input_v4/sequential/cnf_noALO_v4/10x18_208.cnf
c p 4496
c cnf 20946
s SATISFIABLE
c process-time: 0.02 seconds
-----
c input_v4/sequential/cnf_noALO_v4/10x18_209.cnf
c p 3876
c cnf 18280
s SATISFIABLE
c process-time: 0.13 seconds
-----
c input_v4/sequential/cnf_noALO_v4/10x18_414.cnf
c p 5396
c cnf 23992
s SATISFIABLE
c process-time: 0.02 seconds
-----
c input_v4/sequential/cnf_noALO_v4/10x18_415.cnf
c p 5100
c cnf 22858
s SATISFIABLE
c process-time: 0.04 seconds
-----
c input_v4/sequential/cnf_noALO_v4/10x18_416.cnf
c p 3240
c cnf 15195
s SATISFIABLE
c process-time: 0.16 seconds
-----
c input_v4/sequential/cnf_noALO_v4/10x18_417.cnf
c p 3876
c cnf 17922
s SATISFIABLE
c process-time: 1s 0.52 seconds
-----
c input_v4/sequential/cnf_noALO_v4/11x11_120.cnf
c p 2519
c cnf 11080
s SATISFIABLE
c process-time: 0.00 seconds
-----
c input_v4/sequential/cnf_noALO_v4/11x11_121.cnf
c p 1913
c cnf 8676
s SATISFIABLE
c process-time: 0.00 seconds
-----
c input_v4/sequential/cnf_noALO_v4/11x11_122.cnf
c p 1703
c cnf 7889
s SATISFIABLE
c process-time: 0.00 seconds
-----
c input_v4/sequential/cnf_noALO_v4/11x11_123.cnf
c p 2519
c cnf 11081
s SATISFIABLE
c process-time: 0.01 seconds
-----
c input_v4/sequential/cnf_noALO_v4/11x11_124.cnf
c p 2519
c cnf 11036
s SATISFIABLE
c process-time: 0.00 seconds
-----
c input_v4/sequential/cnf_noALO_v4/11x11_130.cnf
c p 2119
c cnf 9532
s SATISFIABLE
c process-time: 0.01 seconds
-----
c input_v4/sequential/cnf_noALO_v4/11x11_131.cnf
c p 2519
c cnf 10991
s SATISFIABLE
c process-time: 0.00 seconds
-----
c input_v4/sequential/cnf_noALO_v4/11x11_132.cnf
c p 2321
c cnf 10397
s SATISFIABLE
c process-time: 0.04 seconds
-----
c input_v4/sequential/cnf_noALO_v4/11x11_133.cnf
c p 2119
c cnf 9551
s SATISFIABLE
c process-time: 0.01 seconds
-----
c input_v4/sequential/cnf_noALO_v4/11x11_134.cnf
c p 2519
c cnf 11081
s SATISFIABLE
c process-time: 0.00 seconds
-----
c input_v4/sequential/cnf_noALO_v4/11x11_135.cnf
c p 2519
c cnf 10946
s SATISFIABLE
c process-time: 0.00 seconds
-----
c input_v4/sequential/cnf_noALO_v4/11x11_136.cnf
c p 1703
c cnf 7817
s SATISFIABLE
c process-time: 0.01 seconds
-----
c input_v4/sequential/cnf_noALO_v4/11x11_137.cnf
c p 2519
c cnf 11282
s SATISFIABLE
c process-time: 0.01 seconds
-----
c input_v4/sequential/cnf_noALO_v4/11x11_138.cnf
c p 2519
c cnf 11081
s SATISFIABLE
c process-time: 0.00 seconds
-----
c input_v4/sequential/cnf_noALO_v4/11x11_139.cnf
c p 1913
c cnf 8676
s SATISFIABLE
c process-time: 0.01 seconds
-----
c input_v4/sequential/cnf_noALO_v4/11x11_140.cnf
c p 2519
c cnf 11260
s SATISFIABLE
c process-time: 0.00 seconds
-----
c input_v4/sequential/cnf_noALO_v4/11x11_141.cnf
c p 1913
c cnf 8692
s SATISFIABLE
c process-time: 0.00 seconds
-----
c input_v4/sequential/cnf_noALO_v4/11x11_142.cnf
c p 2119
c cnf 9477
s SATISFIABLE
c process-time: 0.00 seconds
-----
c input_v4/sequential/cnf_noALO_v4/11x11_143.cnf
c p 1913
c cnf 8791
s SATISFIABLE
c process-time: 0.02 seconds
-----
c input_v4/sequential/cnf_noALO_v4/11x11_144.cnf
c p 2119
c cnf 9477
s SATISFIABLE
c process-time: 0.01 seconds
-----
c input_v4/sequential/cnf_noALO_v4/11x11_145.cnf
c p 2119
c cnf 9569
s SATISFIABLE
c process-time: 0.00 seconds
-----
c input_v4/sequential/cnf_noALO_v4/12x12_120.cnf
c p 3524
c cnf 15756
s SATISFIABLE
c process-time: 0.01 seconds
-----
c input_v4/sequential/cnf_noALO_v4/12x12_121.cnf
c p 2556
c cnf 11755
s SATISFIABLE
c process-time: 0.01 seconds
-----
c input_v4/sequential/cnf_noALO_v4/12x12_122.cnf
c p 3288
c cnf 14897
s SATISFIABLE
c process-time: 0.01 seconds
-----
c input_v4/sequential/cnf_noALO_v4/12x12_123.cnf
c p 2804
c cnf 12850
s SATISFIABLE
c process-time: 0.00 seconds
-----
c input_v4/sequential/cnf_noALO_v4/12x12_124.cnf
c p 3288
c cnf 14824
s SATISFIABLE
c process-time: 0.01 seconds
-----
c input_v4/sequential/cnf_noALO_v4/12x12_130.cnf
c p 3288
c cnf 14823
s SATISFIABLE
c process-time: 0.01 seconds
-----
c input_v4/sequential/cnf_noALO_v4/12x12_131.cnf
c p 2556
c cnf 11847
s SATISFIABLE
c process-time: 0.10 seconds
-----
c input_v4/sequential/cnf_noALO_v4/12x12_132.cnf
c p 3288
c cnf 14652
s SATISFIABLE
c process-time: 0.01 seconds
-----
c input_v4/sequential/cnf_noALO_v4/12x12_133.cnf
c p 3288
c cnf 14530
s SATISFIABLE
c process-time: 0.01 seconds
-----
c input_v4/sequential/cnf_noALO_v4/12x12_134.cnf
c p 3048
c cnf 14057
s SATISFIABLE
c process-time: 0.01 seconds
-----
c input_v4/sequential/cnf_noALO_v4/12x12_135.cnf
c p 2804
c cnf 12789
s SATISFIABLE
c process-time: 0.01 seconds
-----
c input_v4/sequential/cnf_noALO_v4/12x12_136.cnf
c p 3048
c cnf 13832
s SATISFIABLE
c process-time: 0.02 seconds
-----
c input_v4/sequential/cnf_noALO_v4/12x12_137.cnf
c p 2804
c cnf 12871
s SATISFIABLE
c process-time: 0.01 seconds
-----
c input_v4/sequential/cnf_noALO_v4/12x12_138.cnf
c p 2804
c cnf 12871
s SATISFIABLE
c process-time: 0.01 seconds
-----
c input_v4/sequential/cnf_noALO_v4/12x12_139.cnf
c p 3048
c cnf 13810
s SATISFIABLE
c process-time: 0.01 seconds
-----
c input_v4/sequential/cnf_noALO_v4/12x12_140.cnf
c p 2804
c cnf 12728
s SATISFIABLE
c process-time: 0.01 seconds
-----
c input_v4/sequential/cnf_noALO_v4/12x12_141.cnf
c p 2804
c cnf 12932
s SATISFIABLE
c process-time: 0.00 seconds
-----
c input_v4/sequential/cnf_noALO_v4/12x12_142.cnf
c p 2304
c cnf 10750
s SATISFIABLE
c process-time: 0.01 seconds
-----
c input_v4/sequential/cnf_noALO_v4/12x12_143.cnf
c p 3524
c cnf 15623
s SATISFIABLE
c process-time: 0.01 seconds
-----
c input_v4/sequential/cnf_noALO_v4/12x12_144.cnf
c p 2556
c cnf 11847
s SATISFIABLE
c process-time: 0.01 seconds
-----
c input_v4/sequential/cnf_noALO_v4/12x12_145.cnf
c p 2804
c cnf 12810
s SATISFIABLE
c process-time: 0.03 seconds
-----
c input_v4/sequential/cnf_noALO_v4/12x15_39.cnf
c p 4800
c cnf 21889
s SATISFIABLE
c process-time: 0.01 seconds
-----
c input_v4/sequential/cnf_noALO_v4/12x15_43.cnf
c p 4188
c cnf 19393
s SATISFIABLE
c process-time: 0.10 seconds
-----
c input_v4/sequential/cnf_noALO_v4/12x15_45.cnf
c p 3240
c cnf 15275
s SATISFIABLE
c process-time: 1s 0.57 seconds
-----
c input_v4/sequential/cnf_noALO_v4/12x15_46.cnf
c p 3560
c cnf 16696
s SATISFIABLE
c process-time: 0.03 seconds
-----
c input_v4/sequential/cnf_noALO_v4/12x23_210.cnf
c p 11868
c cnf 54565
s SATISFIABLE
c process-time: 0.04 seconds
-----
c input_v4/sequential/cnf_noALO_v4/13x13_120.cnf
c p 3913
c cnf 18164
s SATISFIABLE
c process-time: 0.01 seconds
-----
c input_v4/sequential/cnf_noALO_v4/13x13_121.cnf
c p 3623
c cnf 16728
s SATISFIABLE
c process-time: 0.02 seconds
-----
c input_v4/sequential/cnf_noALO_v4/13x13_122.cnf
c p 3031
c cnf 14282
s SATISFIABLE
c process-time: 0.37 seconds
-----
c input_v4/sequential/cnf_noALO_v4/13x13_123.cnf
c p 4199
c cnf 19176
s SATISFIABLE
c process-time: 0.01 seconds
-----
c input_v4/sequential/cnf_noALO_v4/13x13_124.cnf
c p 3913
c cnf 18017
s SATISFIABLE
c process-time: 0.09 seconds
-----
c input_v4/sequential/cnf_noALO_v4/13x13_130.cnf
c p 3913
c cnf 18090
s SATISFIABLE
c process-time: 0.12 seconds
-----
c input_v4/sequential/cnf_noALO_v4/13x13_131.cnf
c p 3623
c cnf 16908
s SATISFIABLE
c process-time: 0.01 seconds
-----
c input_v4/sequential/cnf_noALO_v4/13x13_132.cnf
c p 4199
c cnf 19150
s SATISFIABLE
c process-time: 0.07 seconds
-----
c input_v4/sequential/cnf_noALO_v4/13x13_133.cnf
c p 3623
c cnf 16818
s SATISFIABLE
c process-time: 0.02 seconds
-----
c input_v4/sequential/cnf_noALO_v4/13x13_134.cnf
c p 3329
c cnf 15518
s SATISFIABLE
c process-time: 3s 2.50 seconds
-----
c input_v4/sequential/cnf_noALO_v4/13x13_135.cnf
c p 3623
c cnf 16706
s SATISFIABLE
c process-time: 0.12 seconds
-----
c input_v4/sequential/cnf_noALO_v4/13x13_136.cnf
c p 3913
c cnf 17944
s SATISFIABLE
c process-time: 0.24 seconds
-----
c input_v4/sequential/cnf_noALO_v4/13x13_137.cnf
c p 3913
c cnf 17944
s SATISFIABLE
c process-time: 0.09 seconds
-----
c input_v4/sequential/cnf_noALO_v4/13x13_138.cnf
c p 4199
c cnf 19097
s SATISFIABLE
c process-time: 0.01 seconds
-----
c input_v4/sequential/cnf_noALO_v4/13x13_139.cnf
c p 4481
c cnf 20295
s SATISFIABLE
c process-time: 0.04 seconds
-----
c input_v4/sequential/cnf_noALO_v4/13x13_140.cnf
c p 3623
c cnf 17155
s SATISFIABLE
c process-time: 0.01 seconds
-----
c input_v4/sequential/cnf_noALO_v4/13x13_141.cnf
c p 3329
c cnf 15723
s SATISFIABLE
c process-time: 0.01 seconds
-----
c input_v4/sequential/cnf_noALO_v4/13x13_142.cnf
c p 3329
c cnf 15436
s SATISFIABLE
c process-time: 0.21 seconds
-----
c input_v4/sequential/cnf_noALO_v4/13x13_143.cnf
c p 3329
c cnf 15518
s SATISFIABLE
c process-time: 0.15 seconds
-----
c input_v4/sequential/cnf_noALO_v4/13x13_144.cnf
c p 4481
c cnf 20466
s SATISFIABLE
c process-time: 0.01 seconds
-----
c input_v4/sequential/cnf_noALO_v4/13x13_145.cnf
c p 4199
c cnf 19203
s SATISFIABLE
c process-time: 0.02 seconds
-----
c input_v4/sequential/cnf_noALO_v4/14x14_120.cnf
c p 4928
c cnf 22976
s SATISFIABLE
c process-time: 0.10 seconds
-----
c input_v4/sequential/cnf_noALO_v4/14x14_121.cnf
c p 5264
c cnf 24573
s SATISFIABLE
c process-time: 0.04 seconds
-----
c input_v4/sequential/cnf_noALO_v4/14x14_122.cnf
c p 5264
c cnf 24544
s SATISFIABLE
c process-time: 0.19 seconds
-----
c input_v4/sequential/cnf_noALO_v4/14x14_123.cnf
c p 4588
c cnf 21489
s SATISFIABLE
c process-time: 0.03 seconds
-----
c input_v4/sequential/cnf_noALO_v4/14x14_124.cnf
c p 4928
c cnf 22949
s SATISFIABLE
c process-time: 0.09 seconds
-----
c input_v4/sequential/cnf_noALO_v4/14x14_130.cnf
c p 4588
c cnf 21757
s SATISFIABLE
c process-time: 0.01 seconds
-----
c input_v4/sequential/cnf_noALO_v4/14x14_131.cnf
c p 5264
c cnf 24573
s SATISFIABLE
c process-time: 0.01 seconds
-----
c input_v4/sequential/cnf_noALO_v4/14x14_132.cnf
c p 5596
c cnf 26006
s SATISFIABLE
c process-time: 0.03 seconds
-----
c input_v4/sequential/cnf_noALO_v4/14x14_133.cnf
c p 5596
c cnf 25701
s SATISFIABLE
c process-time: 0.13 seconds
-----
c input_v4/sequential/cnf_noALO_v4/14x14_134.cnf
c p 5264
c cnf 24487
s SATISFIABLE
c process-time: 0.40 seconds
-----
c input_v4/sequential/cnf_noALO_v4/14x14_135.cnf
c p 4244
c cnf 20239
s SATISFIABLE
c process-time: 0.01 seconds
-----
c input_v4/sequential/cnf_noALO_v4/14x14_136.cnf
c p 4244
c cnf 20194
s SATISFIABLE
c process-time: 0.01 seconds
-----
c input_v4/sequential/cnf_noALO_v4/14x14_137.cnf
c p 5264
c cnf 24402
s SATISFIABLE
c process-time: 0.01 seconds
-----
c input_v4/sequential/cnf_noALO_v4/14x14_138.cnf
c p 5264
c cnf 24772
s SATISFIABLE
c process-time: 0.12 seconds
-----
c input_v4/sequential/cnf_noALO_v4/14x14_139.cnf
c p 4928
c cnf 23240
s SATISFIABLE
c process-time: 0.25 seconds
-----
c input_v4/sequential/cnf_noALO_v4/14x14_140.cnf
c p 5596
c cnf 25975
s SATISFIABLE
c process-time: 0.03 seconds
-----
c input_v4/sequential/cnf_noALO_v4/14x14_141.cnf
c p 5596
c cnf 25671
s SATISFIABLE
c process-time: 0.24 seconds
-----
c input_v4/sequential/cnf_noALO_v4/14x14_142.cnf
c p 5264
c cnf 24630
s SATISFIABLE
c process-time: 0.04 seconds
-----
c input_v4/sequential/cnf_noALO_v4/14x14_143.cnf
c p 5264
c cnf 24317
s SATISFIABLE
c process-time: 0.35 seconds
-----
c input_v4/sequential/cnf_noALO_v4/14x14_144.cnf
c p 4244
c cnf 20194
s SATISFIABLE
c process-time: 0.13 seconds
-----
c input_v4/sequential/cnf_noALO_v4/14x14_145.cnf
c p 5596
c cnf 25944
s SATISFIABLE
c process-time: 0.03 seconds
-----
c input_v4/sequential/cnf_noALO_v4/14x24_105.cnf
c p 13524
c cnf 64472
s SATISFIABLE
c process-time: 12s 11.95 seconds
-----
c input_v4/sequential/cnf_noALO_v4/14x24_110.cnf
c p 12344
c cnf 59250
s SATISFIABLE
c process-time: 5s 4.68 seconds
-----
c input_v4/sequential/cnf_noALO_v4/14x24_113.cnf
c p 14688
c cnf 69589
s SATISFIABLE
c process-time: 1s 0.94 seconds
-----
c input_v4/sequential/cnf_noALO_v4/14x24_117.cnf
c p 11748
c cnf 56673
s SATISFIABLE
c process-time: 12s 11.75 seconds
-----
c input_v4/sequential/cnf_noALO_v4/14x24_129.cnf
c p 12344
c cnf 59365
s SATISFIABLE
c process-time: 39s 38.92 seconds
-----
c input_v4/sequential/cnf_noALO_v4/14x24_139.cnf
c p 12344
c cnf 59481
s SATISFIABLE
c process-time: 1s 1.30 seconds
-----
c input_v4/sequential/cnf_noALO_v4/14x24_147.cnf
c p 12936
c cnf 61698
s SATISFIABLE
c process-time: 5s 4.69 seconds
-----
c input_v4/sequential/cnf_noALO_v4/14x24_148.cnf
c p 9324
c cnf 45799
s SATISFIABLE
c process-time: 21s 21.01 seconds
-----
c input_v4/sequential/cnf_noALO_v4/14x24_157.cnf
c p 9936
c cnf 48714
s SATISFIABLE
c process-time: 1s 1.33 seconds
-----
c input_v4/sequential/cnf_noALO_v4/14x24_158.cnf
c p 8088
c cnf 39762
s SATISFIABLE
c process-time: 0.49 seconds
-----
c input_v4/sequential/cnf_noALO_v4/14x24_169.cnf
c p 9324
c cnf 45657
s SATISFIABLE
c process-time: 11m 41s 701.12 seconds
-----
c input_v4/sequential/cnf_noALO_v4/14x24_179.cnf
c p 8088
c cnf 39884
s SATISFIABLE
c process-time: 23s 22.80 seconds
-----
c input_v4/sequential/cnf_noALO_v4/14x24_188.cnf
c p 13524
c cnf 64854
s SATISFIABLE
c process-time: 2s 1.80 seconds
-----
c input_v4/sequential/cnf_noALO_v4/14x24_189.cnf
c p 15836
c cnf 74108
s SATISFIABLE
c process-time: 1s 1.20 seconds
-----
c input_v4/sequential/cnf_noALO_v4/14x24_190.cnf
c p 8088
c cnf 39811
s SATISFIABLE
c process-time: 3s 3.14 seconds
-----
c input_v4/sequential/cnf_noALO_v4/14x24_199.cnf
c p 7464
c cnf 36885
s SATISFIABLE
c process-time: 2s 1.80 seconds
-----
c input_v4/sequential/cnf_noALO_v4/14x24_200.cnf
c p 8708
c cnf 42750
s SATISFIABLE
c process-time: 52s 52.20 seconds
-----
c input_v4/sequential/cnf_noALO_v4/14x24_208.cnf
c p 12344
c cnf 59327
s SATISFIABLE
c process-time: 1s 0.97 seconds
-----
c input_v4/sequential/cnf_noALO_v4/14x24_209.cnf
c p 8708
c cnf 42803
s SATISFIABLE
c process-time: 3s 3.48 seconds
-----
c input_v4/sequential/cnf_noALO_v4/14x24_218.cnf
c p 12344
c cnf 59596
s SATISFIABLE
c process-time: 14s 13.95 seconds
-----
c input_v4/sequential/cnf_noALO_v4/14x24_219.cnf
c p 9324
c cnf 45628
s SATISFIABLE
c process-time: 19s 19.37 seconds
-----
c input_v4/sequential/cnf_noALO_v4/14x24_418.cnf
c p 11148
c cnf 54357
s SATISFIABLE
c process-time: 4s 4.07 seconds
-----
c input_v4/sequential/cnf_noALO_v4/14x24_419.cnf
c p 14688
c cnf 69264
s SATISFIABLE
c process-time: 1s 1.18 seconds
-----
c input_v4/sequential/cnf_noALO_v4/14x24_420.cnf
c p 8708
c cnf 42776
s SATISFIABLE
c process-time: 3m 42s 222.48 seconds
-----
c input_v4/sequential/cnf_noALO_v4/15x15_120.cnf
c p 6495
c cnf 30799
s SATISFIABLE
c process-time: 0.26 seconds
-----
c input_v4/sequential/cnf_noALO_v4/15x15_121.cnf
c p 5313
c cnf 25385
s SATISFIABLE
c process-time: 0.15 seconds
-----
c input_v4/sequential/cnf_noALO_v4/15x15_122.cnf
c p 6105
c cnf 28860
s SATISFIABLE
c process-time: 0.23 seconds
-----
c input_v4/sequential/cnf_noALO_v4/15x15_123.cnf
c p 6495
c cnf 30555
s SATISFIABLE
c process-time: 0.23 seconds
-----
c input_v4/sequential/cnf_noALO_v4/15x15_124.cnf
c p 6495
c cnf 30525
s SATISFIABLE
c process-time: 2s 1.52 seconds
-----
c input_v4/sequential/cnf_noALO_v4/15x15_130.cnf
c p 6105
c cnf 28888
s SATISFIABLE
c process-time: 0.06 seconds
-----
c input_v4/sequential/cnf_noALO_v4/15x15_131.cnf
c p 6495
c cnf 30433
s SATISFIABLE
c process-time: 0.12 seconds
-----
c input_v4/sequential/cnf_noALO_v4/15x15_132.cnf
c p 6495
c cnf 30555
s SATISFIABLE
c process-time: 0.12 seconds
-----
c input_v4/sequential/cnf_noALO_v4/15x15_133.cnf
c p 6495
c cnf 30403
s SATISFIABLE
c process-time: 1s 0.68 seconds
-----
c input_v4/sequential/cnf_noALO_v4/15x15_134.cnf
c p 5711
c cnf 27155
s SATISFIABLE
c process-time: 0.36 seconds
-----
c input_v4/sequential/cnf_noALO_v4/15x15_135.cnf
c p 6495
c cnf 30555
s SATISFIABLE
c process-time: 0.37 seconds
-----
c input_v4/sequential/cnf_noALO_v4/15x15_136.cnf
c p 6495
c cnf 30707
s SATISFIABLE
c process-time: 0.03 seconds
-----
c input_v4/sequential/cnf_noALO_v4/15x15_137.cnf
c p 6495
c cnf 30768
s SATISFIABLE
c process-time: 1s 1.01 seconds
-----
c input_v4/sequential/cnf_noALO_v4/15x15_138.cnf
c p 6495
c cnf 30555
s SATISFIABLE
c process-time: 1s 0.65 seconds
-----
c input_v4/sequential/cnf_noALO_v4/15x15_139.cnf
c p 6105
c cnf 28803
s SATISFIABLE
c process-time: 0.22 seconds
-----
c input_v4/sequential/cnf_noALO_v4/15x15_140.cnf
c p 6495
c cnf 30616
s SATISFIABLE
c process-time: 0.03 seconds
-----
c input_v4/sequential/cnf_noALO_v4/15x15_141.cnf
c p 6495
c cnf 30616
s SATISFIABLE
c process-time: 0.41 seconds
-----
c input_v4/sequential/cnf_noALO_v4/15x15_142.cnf
c p 6495
c cnf 30464
s SATISFIABLE
c process-time: 0.31 seconds
-----
c input_v4/sequential/cnf_noALO_v4/15x15_143.cnf
c p 6495
c cnf 30890
s SATISFIABLE
c process-time: 0.18 seconds
-----
c input_v4/sequential/cnf_noALO_v4/15x15_144.cnf
c p 6495
c cnf 30708
s SATISFIABLE
c process-time: 0.49 seconds
-----
c input_v4/sequential/cnf_noALO_v4/15x15_145.cnf
c p 6105
c cnf 29030
s SATISFIABLE
c process-time: 0.06 seconds
-----
c input_v4/sequential/cnf_noALO_v4/15x20_307.cnf
c p 6080
c cnf 30032
c process-time: 15m 899.87 seconds
UNKNOWN
-----
c input_v4/sequential/cnf_noALO_v4/15x20_308.cnf
c p 6636
c cnf 32655
s SATISFIABLE
c process-time: 13s 13.14 seconds
-----
c input_v4/sequential/cnf_noALO_v4/15x20_309.cnf
c p 6080
c cnf 30196
s SATISFIABLE
c process-time: 5m 30s 330.05 seconds
-----
c input_v4/sequential/cnf_noALO_v4/15x20_310.cnf
c p 8280
c cnf 40221
s SATISFIABLE
c process-time: 10s 9.93 seconds
-----
c input_v4/sequential/cnf_noALO_v4/15x20_317.cnf
c p 8280
c cnf 40050
s SATISFIABLE
c process-time: 4s 3.76 seconds
-----
c input_v4/sequential/cnf_noALO_v4/15x20_318.cnf
c p 8280
c cnf 40107
s SATISFIABLE
c process-time: 1s 1.13 seconds
-----
c input_v4/sequential/cnf_noALO_v4/15x20_319.cnf
c p 7736
c cnf 37580
s SATISFIABLE
c process-time: 7m 52s 472.45 seconds
-----
c input_v4/sequential/cnf_noALO_v4/15x20_320.cnf
c p 7736
c cnf 37659
s SATISFIABLE
c process-time: 29s 28.74 seconds
-----
c input_v4/sequential/cnf_noALO_v4/17x17_100.cnf
c p 6383
c cnf 31343
s SATISFIABLE
c process-time: 8s 7.83 seconds
-----
c input_v4/sequential/cnf_noALO_v4/17x17_104.cnf
c p 10511
c cnf 50123
s SATISFIABLE
c process-time: 0.44 seconds
-----
c input_v4/sequential/cnf_noALO_v4/17x17_109.cnf
c p 10009
c cnf 47682
s SATISFIABLE
c process-time: 1s 0.75 seconds
-----
c input_v4/sequential/cnf_noALO_v4/17x17_112.cnf
c p 11009
c cnf 51944
s SATISFIABLE
c process-time: 0.22 seconds
-----
c input_v4/sequential/cnf_noALO_v4/17x17_116.cnf
c p 9503
c cnf 45402
s SATISFIABLE
c process-time: 1s 0.88 seconds
-----
c input_v4/sequential/cnf_noALO_v4/17x17_120.cnf
c p 6913
c cnf 33694
s SATISFIABLE
c process-time: 56s 56.32 seconds
-----
c input_v4/sequential/cnf_noALO_v4/17x17_128.cnf
c p 6913
c cnf 33988
s SATISFIABLE
c process-time: 6s 6.14 seconds
-----
c input_v4/sequential/cnf_noALO_v4/17x17_136.cnf
c p 10009
c cnf 47973
s SATISFIABLE
c process-time: 0.18 seconds
-----
c input_v4/sequential/cnf_noALO_v4/17x17_138.cnf
c p 6383
c cnf 31253
s SATISFIABLE
c process-time: 3s 3.11 seconds
-----
c input_v4/sequential/cnf_noALO_v4/17x17_165.cnf
c p 6913
c cnf 33694
s SATISFIABLE
c process-time: 1s 0.51 seconds
-----
c input_v4/sequential/cnf_noALO_v4/17x17_166.cnf
c p 6383
c cnf 31253
s SATISFIABLE
c process-time: 10s 10.25 seconds
-----
c input_v4/sequential/cnf_noALO_v4/17x17_167.cnf
c p 13913
c cnf 64874
s SATISFIABLE
c process-time: 0.06 seconds
-----
c input_v4/sequential/cnf_noALO_v4/17x17_168.cnf
c p 14849
c cnf 68157
s SATISFIABLE
c process-time: 0.20 seconds
-----
c input_v4/sequential/cnf_noALO_v4/17x17_175.cnf
c p 5311
c cnf 26380
s SATISFIABLE
c process-time: 1s 0.87 seconds
-----
c input_v4/sequential/cnf_noALO_v4/17x17_176.cnf
c p 4769
c cnf 23789
s SATISFIABLE
c process-time: 31s 31.26 seconds
-----
c input_v4/sequential/cnf_noALO_v4/17x17_177.cnf
c p 11503
c cnf 54500
s SATISFIABLE
c process-time: 0.05 seconds
-----
c input_v4/sequential/cnf_noALO_v4/17x17_178.cnf
c p 12961
c cnf 61077
s SATISFIABLE
c process-time: 0.14 seconds
-----
c input_v4/sequential/cnf_noALO_v4/17x17_187.cnf
c p 5849
c cnf 28874
s SATISFIABLE
c process-time: 0.16 seconds
-----
c input_v4/sequential/cnf_noALO_v4/17x17_188.cnf
c p 6383
c cnf 31298
s SATISFIABLE
c process-time: 0.32 seconds
-----
c input_v4/sequential/cnf_noALO_v4/17x17_197.cnf
c p 6383
c cnf 31343
s SATISFIABLE
c process-time: 5s 5.19 seconds
-----
c input_v4/sequential/cnf_noALO_v4/17x17_198.cnf
c p 5311
c cnf 26214
s SATISFIABLE
c process-time: 0.10 seconds
-----
c input_v4/sequential/cnf_noALO_v4/17x17_230.cnf
c p 3673
c cnf 18485
s SATISFIABLE
c process-time: 0.17 seconds
-----
c input_v4/sequential/cnf_noALO_v4/17x17_240.cnf
c p 5311
c cnf 26306
s SATISFIABLE
c process-time: 1s 1.37 seconds
-----
c input_v4/sequential/cnf_noALO_v4/17x17_250.cnf
c p 16673
c cnf 74694
s SATISFIABLE
c process-time: 0.07 seconds
-----
c input_v4/sequential/cnf_noALO_v4/17x17_260.cnf
c p 16673
c cnf 75726
s SATISFIABLE
c process-time: 0.05 seconds
-----
c input_v4/sequential/cnf_noALO_v4/17x17_270.cnf
c p 14849
c cnf 68383
s SATISFIABLE
c process-time: 0.29 seconds
-----
c input_v4/sequential/cnf_noALO_v4/17x17_429.cnf
c p 10009
c cnf 47791
s SATISFIABLE
c process-time: 0.05 seconds
-----
c input_v4/sequential/cnf_noALO_v4/17x17_439.cnf
c p 6383
c cnf 31388
s SATISFIABLE
c process-time: 12s 11.66 seconds
-----
c input_v4/sequential/cnf_noALO_v4/17x17_449.cnf
c p 8993
c cnf 43381
s SATISFIABLE
c process-time: 4s 4.32 seconds
-----
c input_v4/sequential/cnf_noALO_v4/20x20_430.cnf
c p 19100
c cnf 92546
s SATISFIABLE
c process-time: 11s 11.39 seconds
-----
c input_v4/sequential/cnf_noALO_v4/20x20_440.cnf
c p 9688
c cnf 48450
c process-time: 15m 899.85 seconds
UNKNOWN
-----
c input_v4/sequential/cnf_noALO_v4/20x20_450.cnf
c p 11920
c cnf 59040
c process-time: 15m 899.64 seconds
UNKNOWN
-----
c input_v4/sequential/cnf_noALO_v4/20x36_106.cnf
c p 49896
c cnf 248256
c process-time: 15m 899.73 seconds
UNKNOWN
-----
c input_v4/sequential/cnf_noALO_v4/20x36_114.cnf
c p 49896
c cnf 248619
s SATISFIABLE
c process-time: 14m 12s 851.58 seconds
-----
c input_v4/sequential/cnf_noALO_v4/20x36_118.cnf
c p 42060
c cnf 211127
c process-time: 15m 899.79 seconds
UNKNOWN
-----
c input_v4/sequential/cnf_noALO_v4/20x36_130.cnf
c p 42060
c cnf 211188
c process-time: 15m 899.93 seconds
UNKNOWN
-----
c input_v4/sequential/cnf_noALO_v4/20x36_140.cnf
c p 42060
c cnf 211248
c process-time: 15m 899.91 seconds
UNKNOWN
-----
c input_v4/sequential/cnf_noALO_v4/20x36_149.cnf
c p 38088
c cnf 191605
c process-time: 15m 900.12 seconds
UNKNOWN
-----
c input_v4/sequential/cnf_noALO_v4/20x36_150.cnf
c p 30036
c cnf 152569
c process-time: 15m 899.82 seconds
UNKNOWN
-----
c input_v4/sequential/cnf_noALO_v4/20x36_159.cnf
c p 42060
c cnf 211369
c process-time: 15m 899.82 seconds
UNKNOWN
-----
c input_v4/sequential/cnf_noALO_v4/20x36_160.cnf
c p 30036
c cnf 152569
c process-time: 15m 899.97 seconds
UNKNOWN
-----
c input_v4/sequential/cnf_noALO_v4/20x36_170.cnf
c p 44688
c cnf 223873
c process-time: 15m 899.84 seconds
UNKNOWN
-----
c input_v4/sequential/cnf_noALO_v4/20x36_180.cnf
c p 30036
c cnf 152654
c process-time: 15m 899.59 seconds
UNKNOWN
-----
c input_v4/sequential/cnf_noALO_v4/20x36_210.cnf
c p 44688
c cnf 223873
c process-time: 15m 899.75 seconds
UNKNOWN
-----
c input_v4/sequential/cnf_noALO_v4/20x36_220.cnf
c p 49896
c cnf 247604
c process-time: 15m 899.83 seconds
UNKNOWN
-----
c input_v4/sequential/cnf_noALO_v4/25x25_60.cnf
c p 29425
c cnf 147722
s SATISFIABLE
c process-time: 1m 36s 95.96 seconds
-----
c input_v4/sequential/cnf_noALO_v4/25x25_66.cnf
c p 35135
c cnf 175001
s SATISFIABLE
c process-time: 3m 17s 196.88 seconds
-----
c input_v4/sequential/cnf_noALO_v4/25x25_72.cnf
c p 45161
c cnf 221387
c process-time: 15m 899.70 seconds
UNKNOWN
-----
c input_v4/sequential/cnf_noALO_v4/25x25_78.cnf
c p 36265
c cnf 180237
s SATISFIABLE
c process-time: 13m 7s 786.70 seconds
-----
c input_v4/sequential/cnf_noALO_v4/25x42_110.cnf
c p 121586
c cnf 604382
s SATISFIABLE
c process-time: 2m 10s 129.74 seconds
-----
c input_v4/sequential/cnf_noALO_v4/35x48_190.cnf
c p 129600
c cnf 675748
c process-time: 15m 899.75 seconds
UNKNOWN
-----
c input_v4/sequential/cnf_noALO_v4/6x6_120.cnf
c p 228
c cnf 914
s SATISFIABLE
c process-time: 0.00 seconds
-----
c input_v4/sequential/cnf_noALO_v4/6x6_121.cnf
c p 336
c cnf 1262
s SATISFIABLE
c process-time: 0.00 seconds
-----
c input_v4/sequential/cnf_noALO_v4/6x6_122.cnf
c p 284
c cnf 1082
s SATISFIABLE
c process-time: 0.00 seconds
-----
c input_v4/sequential/cnf_noALO_v4/6x6_123.cnf
c p 284
c cnf 1149
s SATISFIABLE
c process-time: 0.00 seconds
-----
c input_v4/sequential/cnf_noALO_v4/6x6_124.cnf
c p 284
c cnf 1073
s SATISFIABLE
c process-time: 0.00 seconds
-----
c input_v4/sequential/cnf_noALO_v4/6x6_125.cnf
c p 284
c cnf 1099
s SATISFIABLE
c process-time: 0.00 seconds
-----
c input_v4/sequential/cnf_noALO_v4/6x6_130.cnf
c p 228
c cnf 914
s SATISFIABLE
c process-time: 0.00 seconds
-----
c input_v4/sequential/cnf_noALO_v4/6x6_131.cnf
c p 336
c cnf 1252
s SATISFIABLE
c process-time: 0.00 seconds
-----
c input_v4/sequential/cnf_noALO_v4/6x6_132.cnf
c p 228
c cnf 901
s SATISFIABLE
c process-time: 0.00 seconds
-----
c input_v4/sequential/cnf_noALO_v4/6x6_133.cnf
c p 336
c cnf 1221
s SATISFIABLE
c process-time: 0.00 seconds
-----
c input_v4/sequential/cnf_noALO_v4/6x6_134.cnf
c p 336
c cnf 1242
s SATISFIABLE
c process-time: 0.00 seconds
-----
c input_v4/sequential/cnf_noALO_v4/6x6_135.cnf
c p 228
c cnf 901
s SATISFIABLE
c process-time: 0.00 seconds
-----
c input_v4/sequential/cnf_noALO_v4/6x6_136.cnf
c p 228
c cnf 939
s SATISFIABLE
c process-time: 0.00 seconds
-----
c input_v4/sequential/cnf_noALO_v4/6x6_137.cnf
c p 284
c cnf 1140
s SATISFIABLE
c process-time: 0.00 seconds
-----
c input_v4/sequential/cnf_noALO_v4/6x6_138.cnf
c p 284
c cnf 1124
s SATISFIABLE
c process-time: 0.00 seconds
-----
c input_v4/sequential/cnf_noALO_v4/6x6_139.cnf
c p 284
c cnf 1082
s SATISFIABLE
c process-time: 0.00 seconds
-----
c input_v4/sequential/cnf_noALO_v4/6x6_140.cnf
c p 384
c cnf 1348
s SATISFIABLE
c process-time: 0.00 seconds
-----
c input_v4/sequential/cnf_noALO_v4/6x6_141.cnf
c p 228
c cnf 901
s SATISFIABLE
c process-time: 0.00 seconds
-----
c input_v4/sequential/cnf_noALO_v4/6x6_142.cnf
c p 284
c cnf 1090
s SATISFIABLE
c process-time: 0.00 seconds
-----
c input_v4/sequential/cnf_noALO_v4/6x6_143.cnf
c p 336
c cnf 1272
s SATISFIABLE
c process-time: 0.00 seconds
-----
c input_v4/sequential/cnf_noALO_v4/6x6_144.cnf
c p 336
c cnf 1284
s SATISFIABLE
c process-time: 0.00 seconds
-----
c input_v4/sequential/cnf_noALO_v4/6x6_145.cnf
c p 284
c cnf 1099
s SATISFIABLE
c process-time: 0.00 seconds
-----
c input_v4/sequential/cnf_noALO_v4/7x7_120.cnf
c p 479
c cnf 1847
s SATISFIABLE
c process-time: 0.00 seconds
-----
c input_v4/sequential/cnf_noALO_v4/7x7_121.cnf
c p 553
c cnf 2222
s SATISFIABLE
c process-time: 0.00 seconds
-----
c input_v4/sequential/cnf_noALO_v4/7x7_122.cnf
c p 553
c cnf 2259
s SATISFIABLE
c process-time: 0.00 seconds
-----
c input_v4/sequential/cnf_noALO_v4/7x7_123.cnf
c p 401
c cnf 1606
s SATISFIABLE
c process-time: 0.00 seconds
-----
c input_v4/sequential/cnf_noALO_v4/7x7_124.cnf
c p 479
c cnf 1920
s SATISFIABLE
c process-time: 0.00 seconds
-----
c input_v4/sequential/cnf_noALO_v4/7x7_130.cnf
c p 319
c cnf 1395
s SATISFIABLE
c process-time: 0.00 seconds
-----
c input_v4/sequential/cnf_noALO_v4/7x7_131.cnf
c p 479
c cnf 1972
s SATISFIABLE
c process-time: 0.00 seconds
-----
c input_v4/sequential/cnf_noALO_v4/7x7_132.cnf
c p 623
c cnf 2425
s SATISFIABLE
c process-time: 0.00 seconds
-----
c input_v4/sequential/cnf_noALO_v4/7x7_133.cnf
c p 479
c cnf 2003
s SATISFIABLE
c process-time: 0.00 seconds
-----
c input_v4/sequential/cnf_noALO_v4/7x7_134.cnf
c p 401
c cnf 1648
s SATISFIABLE
c process-time: 0.00 seconds
-----
c input_v4/sequential/cnf_noALO_v4/7x7_135.cnf
c p 553
c cnf 2296
s SATISFIABLE
c process-time: 0.00 seconds
-----
c input_v4/sequential/cnf_noALO_v4/7x7_136.cnf
c p 401
c cnf 1640
s SATISFIABLE
c process-time: 0.00 seconds
-----
c input_v4/sequential/cnf_noALO_v4/7x7_137.cnf
c p 401
c cnf 1665
s SATISFIABLE
c process-time: 0.00 seconds
-----
c input_v4/sequential/cnf_noALO_v4/7x7_138.cnf
c p 479
c cnf 1941
s SATISFIABLE
c process-time: 0.00 seconds
-----
c input_v4/sequential/cnf_noALO_v4/7x7_139.cnf
c p 479
c cnf 1972
s SATISFIABLE
c process-time: 0.00 seconds
-----
c input_v4/sequential/cnf_noALO_v4/7x7_140.cnf
c p 479
c cnf 1910
s SATISFIABLE
c process-time: 0.00 seconds
-----
c input_v4/sequential/cnf_noALO_v4/7x7_141.cnf
c p 479
c cnf 1920
s SATISFIABLE
c process-time: 0.00 seconds
-----
c input_v4/sequential/cnf_noALO_v4/7x7_142.cnf
c p 479
c cnf 1941
s SATISFIABLE
c process-time: 0.00 seconds
-----
c input_v4/sequential/cnf_noALO_v4/7x7_143.cnf
c p 553
c cnf 2297
s SATISFIABLE
c process-time: 0.00 seconds
-----
c input_v4/sequential/cnf_noALO_v4/7x7_144.cnf
c p 479
c cnf 1941
s SATISFIABLE
c process-time: 0.00 seconds
-----
c input_v4/sequential/cnf_noALO_v4/7x7_145.cnf
c p 479
c cnf 1909
s SATISFIABLE
c process-time: 0.00 seconds
-----
c input_v4/sequential/cnf_noALO_v4/8x8_120.cnf
c p 848
c cnf 3456
s SATISFIABLE
c process-time: 0.00 seconds
-----
c input_v4/sequential/cnf_noALO_v4/8x8_121.cnf
c p 848
c cnf 3457
s SATISFIABLE
c process-time: 0.00 seconds
-----
c input_v4/sequential/cnf_noALO_v4/8x8_122.cnf
c p 848
c cnf 3572
s SATISFIABLE
c process-time: 0.00 seconds
-----
c input_v4/sequential/cnf_noALO_v4/8x8_123.cnf
c p 848
c cnf 3413
s SATISFIABLE
c process-time: 0.00 seconds
-----
c input_v4/sequential/cnf_noALO_v4/8x8_124.cnf
c p 644
c cnf 2848
s SATISFIABLE
c process-time: 0.00 seconds
-----
c input_v4/sequential/cnf_noALO_v4/8x8_130.cnf
c p 644
c cnf 2733
s SATISFIABLE
c process-time: 0.00 seconds
-----
c input_v4/sequential/cnf_noALO_v4/8x8_131.cnf
c p 848
c cnf 3456
s SATISFIABLE
c process-time: 0.00 seconds
-----
c input_v4/sequential/cnf_noALO_v4/8x8_132.cnf
c p 748
c cnf 3068
s SATISFIABLE
c process-time: 0.00 seconds
-----
c input_v4/sequential/cnf_noALO_v4/8x8_133.cnf
c p 644
c cnf 2775
s SATISFIABLE
c process-time: 0.00 seconds
-----
c input_v4/sequential/cnf_noALO_v4/8x8_134.cnf
c p 848
c cnf 3384
s SATISFIABLE
c process-time: 0.00 seconds
-----
c input_v4/sequential/cnf_noALO_v4/8x8_135.cnf
c p 644
c cnf 2723
s SATISFIABLE
c process-time: 0.00 seconds
-----
c input_v4/sequential/cnf_noALO_v4/8x8_136.cnf
c p 748
c cnf 3093
s SATISFIABLE
c process-time: 0.00 seconds
-----
c input_v4/sequential/cnf_noALO_v4/8x8_137.cnf
c p 848
c cnf 3456
s SATISFIABLE
c process-time: 0.00 seconds
-----
c input_v4/sequential/cnf_noALO_v4/8x8_138.cnf
c p 536
c cnf 2350
s SATISFIABLE
c process-time: 0.00 seconds
-----
c input_v4/sequential/cnf_noALO_v4/8x8_139.cnf
c p 848
c cnf 3413
s SATISFIABLE
c process-time: 0.00 seconds
-----
c input_v4/sequential/cnf_noALO_v4/8x8_140.cnf
c p 748
c cnf 3168
s SATISFIABLE
c process-time: 0.00 seconds
-----
c input_v4/sequential/cnf_noALO_v4/8x8_141.cnf
c p 848
c cnf 3557
s SATISFIABLE
c process-time: 0.00 seconds
-----
c input_v4/sequential/cnf_noALO_v4/8x8_142.cnf
c p 748
c cnf 3130
s SATISFIABLE
c process-time: 0.00 seconds
-----
c input_v4/sequential/cnf_noALO_v4/8x8_143.cnf
c p 944
c cnf 3874
s SATISFIABLE
c process-time: 0.00 seconds
-----
c input_v4/sequential/cnf_noALO_v4/8x8_144.cnf
c p 748
c cnf 3180
s SATISFIABLE
c process-time: 0.00 seconds
-----
c input_v4/sequential/cnf_noALO_v4/8x8_145.cnf
c p 848
c cnf 3543
s SATISFIABLE
c process-time: 0.00 seconds
-----
c input_v4/sequential/cnf_noALO_v4/9x9_120.cnf
c p 969
c cnf 4247
s SATISFIABLE
c process-time: 0.00 seconds
-----
c input_v4/sequential/cnf_noALO_v4/9x9_121.cnf
c p 1233
c cnf 5246
s SATISFIABLE
c process-time: 0.00 seconds
-----
c input_v4/sequential/cnf_noALO_v4/9x9_122.cnf
c p 1233
c cnf 5197
s SATISFIABLE
c process-time: 0.00 seconds
-----
c input_v4/sequential/cnf_noALO_v4/9x9_123.cnf
c p 1103
c cnf 4684
s SATISFIABLE
c process-time: 0.00 seconds
-----
c input_v4/sequential/cnf_noALO_v4/9x9_124.cnf
c p 1359
c cnf 5760
s SATISFIABLE
c process-time: 0.00 seconds
-----
c input_v4/sequential/cnf_noALO_v4/9x9_130.cnf
c p 1233
c cnf 5230
s SATISFIABLE
c process-time: 0.00 seconds
-----
c input_v4/sequential/cnf_noALO_v4/9x9_131.cnf
c p 1359
c cnf 5649
s SATISFIABLE
c process-time: 0.00 seconds
-----
c input_v4/sequential/cnf_noALO_v4/9x9_132.cnf
c p 1359
c cnf 5704
s SATISFIABLE
c process-time: 0.00 seconds
-----
c input_v4/sequential/cnf_noALO_v4/9x9_133.cnf
c p 1233
c cnf 5296
s SATISFIABLE
c process-time: 0.00 seconds
-----
c input_v4/sequential/cnf_noALO_v4/9x9_134.cnf
c p 969
c cnf 4322
s SATISFIABLE
c process-time: 0.00 seconds
-----
c input_v4/sequential/cnf_noALO_v4/9x9_135.cnf
c p 1103
c cnf 4785
s SATISFIABLE
c process-time: 0.00 seconds
-----
c input_v4/sequential/cnf_noALO_v4/9x9_136.cnf
c p 1103
c cnf 4800
s SATISFIABLE
c process-time: 0.00 seconds
-----
c input_v4/sequential/cnf_noALO_v4/9x9_137.cnf
c p 969
c cnf 4222
s SATISFIABLE
c process-time: 0.00 seconds
-----
c input_v4/sequential/cnf_noALO_v4/9x9_138.cnf
c p 1103
c cnf 4814
s SATISFIABLE
c process-time: 0.00 seconds
-----
c input_v4/sequential/cnf_noALO_v4/9x9_139.cnf
c p 1233
c cnf 5131
s SATISFIABLE
c process-time: 0.00 seconds
-----
c input_v4/sequential/cnf_noALO_v4/9x9_140.cnf
c p 1233
c cnf 5378
s SATISFIABLE
c process-time: 0.00 seconds
-----
c input_v4/sequential/cnf_noALO_v4/9x9_141.cnf
c p 969
c cnf 4234
s SATISFIABLE
c process-time: 0.00 seconds
-----
c input_v4/sequential/cnf_noALO_v4/9x9_142.cnf
c p 1359
c cnf 5723
s SATISFIABLE
c process-time: 0.00 seconds
-----
c input_v4/sequential/cnf_noALO_v4/9x9_143.cnf
c p 1103
c cnf 4829
s SATISFIABLE
c process-time: 0.00 seconds
-----
c input_v4/sequential/cnf_noALO_v4/9x9_144.cnf
c p 1233
c cnf 5246
s SATISFIABLE
c process-time: 0.00 seconds
-----
c input_v4/sequential/cnf_noALO_v4/9x9_145.cnf
c p 1103
c cnf 4742
s SATISFIABLE
c process-time: 0.00 seconds
-----
UNKNOWN
-----

